Using license file /home/benedond/gurobi.lic
Using gurobi.env file
Set parameter Threads to value 1
Academic license - for non-commercial use only
Changed value of parameter TimeLimit to 300.0
   Prev: inf  Min: 0.0  Max: inf  Default: inf
Gurobi Optimizer version 9.0.1 build v9.0.1rc0 (linux64)
Optimize a model with 125 rows, 60 columns and 418 nonzeros
Model fingerprint: 0x9500ccb6
Variable types: 5 continuous, 55 integer (50 binary)
Coefficient statistics:
  Matrix range     [9e-01, 1e+03]
  Objective range  [3e-03, 9e-01]
  Bounds range     [1e+00, 1e+00]
  RHS range        [1e+00, 1e+03]

---------------------------------------------------------------------------
Multi-objectives: starting optimization with 1 objectives ... 
---------------------------------------------------------------------------
---------------------------------------------------------------------------

Multi-objectives: optimize objective 1 (min avg power cons) ...
---------------------------------------------------------------------------

Optimize a model with 125 rows, 60 columns and 418 nonzeros
Variable types: 5 continuous, 55 integer (50 binary)
Coefficient statistics:
  Matrix range     [9e-01, 1e+03]
  Objective range  [3e-03, 9e-01]
  Bounds range     [1e+00, 1e+00]
  RHS range        [1e+00, 1e+03]
Presolve removed 35 rows and 21 columns
Presolve time: 0.00s

Explored 0 nodes (0 simplex iterations) in 0.00 seconds
Thread count was 1 (of 4 available processors)

Solution count 0

Model is infeasible
Best objective -, best bound -, gap -

---------------------------------------------------------------------------
Multi-objectives: solved in 0.00 seconds
Model is infeasible

